4 8 1 1 111111
15 2 8 2 2 3 2 8 5 5 7 2 3 3 7 3 2 8 7 3 2 1 7 2 1 3 2 2 1 3 5 3 1 1 1 2 1 1 5 3 1 1 7 1 6 3 2 8 5 2 6 2 8 5 5 1 2 8 7 6 5 1 6 6 
15 2 8 1 4 3 2 4 7 5 1 1 1 7 1 6 6 1 5 4 1 1 4 2 1 4 3 6 2 2 4 5 3 2 4 2 6 4 2 2 5 5 7 1 6 1 1 3 7 2 1 1 7 6 2 8 5 5 2 2 1 1 2 3 
15 1 1 5 1 2 5 1 2 2 2 1 4 4 6 1 2 4 1 7 7 2 2 4 5 6 2 8 1 1 6 1 2 1 1 2 7 2 5 1 7 5 2 8 5 7 7 2 3 7 7 5 1 3 3 1 2 2 
15 2 8 7 4 4 2 8 5 1 5 2 1 1 4 5 2 3 4 6 2 1 5 5 2 3 2 5 2 1 5 7 2 5 2 6 2 2 3 6 6 3 2 5 5 6 2 2 8 2 7 4 2 8 6 4 4 1 2 1 2 2 7 7 4 1 8 5 
0 3 1 8 10 
1 0 3 3 4 12 
0 3 3 4 8 
2 1 2 3 6 7 9 
2 1 2 3 6 7 9 
0 3 6 7 8 
3 3 4 5 2 13 14 
3 5 4 3 3 11 13 14 
3 2 0 5 3 9 11 12 
3 3 8 4 0 
1 0 3 11 12 14 
3 7 8 10 0 
3 1 10 8 1 13 
3 7 12 6 0 
3 7 10 6 0 
0 3 16 20 28 
1 15 3 17 22 26 
1 16 3 18 19 23 
1 17 1 24 
1 17 1 25 
1 15 3 22 23 24 
0 3 22 23 24 
3 16 20 21 1 25 
3 20 17 21 1 27 
3 18 21 20 1 25 
3 22 19 24 1 27 
1 16 1 27 
3 25 26 23 0 
1 15 1 29 
1 28 0 
0 3 32 35 36 
0 3 32 35 36 
2 30 31 3 34 37 39 
0 3 34 35 36 
2 32 33 1 38 
3 31 30 33 2 37 38 
3 30 31 33 3 37 38 39 
3 32 36 35 3 40 41 42 
3 35 34 36 3 40 41 42 
2 32 36 3 40 41 42 
3 38 37 39 2 43 44 
3 37 39 38 1 44 
3 38 37 39 2 43 44 
2 40 42 0 
3 41 40 42 0 
0 3 47 52 55 
0 3 47 52 55 
2 46 45 3 49 50 58 
0 3 49 50 52 
2 47 48 3 51 53 54 
2 48 47 3 51 53 54 
2 50 49 1 57 
3 45 46 48 3 53 54 58 
3 50 49 52 2 56 57 
3 50 52 49 2 56 59 
2 45 46 3 56 57 58 
3 54 55 53 0 
3 51 53 55 1 59 
3 47 52 55 1 59 
3 54 57 58 0 
